NAME 
ROWS
 N  OBJ
 L  R0      
 L  R1      
 L  R2      
 L  R3      
 E  R4      
COLUMNS
    MARKER    'MARKER'                 'INTORG'
    I0(5)     OBJ       -489
    I0(5)     R0        -131
    I0(5)     R1        -842
    I0(5)     R2        -35
    I0(5)     R3        -498
    I0(5)     R4        98
    I1(5)     OBJ       -552
    I1(5)     R0        -461
    I1(5)     R1        -668
    I1(5)     R2        -925
    I1(5)     R3        -487
    I1(5)     R4        57
    I2(5)     OBJ       -798
    I2(5)     R0        -285
    I2(5)     R1        -644
    I2(5)     R2        -264
    I2(5)     R3        -336
    I2(5)     R4        255
    I3(5)     OBJ       -893
    I3(5)     R0        -972
    I3(5)     R1        -965
    I3(5)     R2        -657
    I3(5)     R3        -683
    I3(5)     R4        168
    I4(5)     OBJ       -63
    I4(5)     R0        -498
    I4(5)     R1        -846
    I4(5)     R2        -568
    I4(5)     R3        -245
    I4(5)     R4        635
    I5(5)     OBJ       -975
    I5(5)     R0        -956
    I5(5)     R1        -98
    I5(5)     R2        -176
    I5(5)     R3        -702
    I5(5)     R4        948
    I6(5)     OBJ       -799
    I6(5)     R0        -597
    I6(5)     R1        -81
    I6(5)     R2        -341
    I6(5)     R3        -366
    I6(5)     R4        84
    I7(5)     OBJ       -378
    I7(5)     R0        -397
    I7(5)     R1        -99
    I7(5)     R2        -186
    I7(5)     R3        -959
    I7(5)     R4        311
    I8(5)     OBJ       -131
    I8(5)     R0        -531
    I8(5)     R1        -265
    I8(5)     R2        -886
    I8(5)     R3        -666
    I8(5)     R4        721
    I9(5)     OBJ       -132
    I9(5)     R0        -71
    I9(5)     R1        -725
    I9(5)     R2        -403
    I9(5)     R3        -445
    I9(5)     R4        97
    I10(5)    OBJ       -607
    I10(5)    R0        -846
    I10(5)    R1        -474
    I10(5)    R2        -935
    I10(5)    R3        -203
    I10(5)    R4        252
    I11(5)    OBJ       -895
    I11(5)    R0        -20
    I11(5)    R1        -395
    I11(5)    R2        -728
    I11(5)    R3        -700
    I11(5)    R4        218
    I12(5)    OBJ       -123
    I12(5)    R0        -623
    I12(5)    R1        -185
    I12(5)    R2        -70
    I12(5)    R3        -369
    I12(5)    R4        584
    I13(5)    OBJ       -178
    I13(5)    R0        -644
    I13(5)    R1        -758
    I13(5)    R2        -579
    I13(5)    R3        -466
    I13(5)    R4        587
    I14(5)    OBJ       -455
    I14(5)    R0        -913
    I14(5)    R1        -367
    I14(5)    R2        -693
    I14(5)    R3        -356
    I14(5)    R4        901
    I15(5)    OBJ       -117
    I15(5)    R0        -685
    I15(5)    R1        -683
    I15(5)    R2        -916
    I15(5)    R3        -937
    I15(5)    R4        829
    I16(5)    OBJ       -253
    I16(5)    R0        -618
    I16(5)    R1        -714
    I16(5)    R2        -676
    I16(5)    R3        -642
    I16(5)    R4        289
    I17(5)    OBJ       -167
    I17(5)    R0        -711
    I17(5)    R1        -964
    I17(5)    R2        -774
    I17(5)    R3        -696
    I17(5)    R4        266
    I18(5)    OBJ       -644
    I18(5)    R0        -62
    I18(5)    R1        -79
    I18(5)    R2        -14
    I18(5)    R3        -122
    I18(5)    R4        787
    I19(5)    OBJ       -375
    I19(5)    R0        -749
    I19(5)    R1        -245
    I19(5)    R2        -941
    I19(5)    R3        -528
    I19(5)    R4        955
    I20(1)    R4        1
    MARKER    'MARKER'                 'INTEND'
RHS
    RHS1      R0        -6329
    RHS1      R1        -6151
    RHS1      R2        -6033
    RHS1      R3        -6499
    RHS1      R4        4521
BOUNDS
 UP BND1      I0(5)     1
 UP BND1      I1(5)     1
 UP BND1      I2(5)     1
 UP BND1      I3(5)     1
 UP BND1      I4(5)     1
 UP BND1      I5(5)     1
 UP BND1      I6(5)     1
 UP BND1      I7(5)     1
 UP BND1      I8(5)     1
 UP BND1      I9(5)     1
 UP BND1      I10(5)    1
 UP BND1      I11(5)    1
 UP BND1      I12(5)    1
 UP BND1      I13(5)    1
 UP BND1      I14(5)    1
 UP BND1      I15(5)    1
 UP BND1      I16(5)    1
 UP BND1      I17(5)    1
 UP BND1      I18(5)    1
 UP BND1      I19(5)    1
 LI BND1      I20(1)    0
ENDATA
